language ESSENCE' 1.0

letting jobs = 102
letting horizon = 771
letting resourcesRenew = 2
letting resourcesNonrenew = 2
letting resourceLimits = [62, 70, 594, 602]
letting successors = [[2, 3, 4, 5, 6, 7, 8, 9, 10, 11, 12, 13, 14, 15, 16, 17, 18, 19, 20, 21, 24, 26, 27, 28, 30, 31, 35, 39, 40, 44], [101, 100, 98, 94, 93, 91, 68, 67, 62, 61, 60, 59, 58, 57, 54, 50, 49, 47, 45, 37, 36, 33], [100, 97, 93, 68, 63, 62, 60, 59, 56, 50, 49, 47, 37, 22], [99, 98, 97, 95, 93, 92, 91, 90, 83, 67, 66, 65, 62, 61, 60, 59, 58, 54, 51, 48, 45, 43, 38], [100, 97, 96, 89, 67, 66, 61, 59, 54, 51, 48, 43, 38, 37, 23], [101, 100, 98, 94, 92, 91, 88, 87, 81, 67, 60, 59, 58, 54, 52, 50, 33, 32], [100, 99, 97, 96, 95, 93, 88, 67, 66, 63, 55, 54, 50, 46, 43, 42, 38], [101, 98, 97, 96, 94, 93, 91, 90, 87, 86, 85, 80, 76, 68, 67, 66, 65, 63, 54, 52, 50, 47, 37], [101, 98, 92, 86, 82, 79, 75, 68, 67, 66, 65, 64, 61, 60, 59, 58, 56, 50, 48, 41], [101, 100, 98, 95, 93, 92, 91, 86, 78, 68, 66, 61, 59, 58, 50, 47, 46, 36], [101, 100, 93, 86, 83, 68, 63, 60, 57, 56, 49, 48, 43, 34], [101, 100, 99, 94, 92, 90, 88, 87, 86, 81, 76, 67, 65, 64, 57, 55, 54, 50, 32], [100, 95, 92, 87, 68, 66, 65, 58, 56, 55, 41, 25], [100, 97, 96, 95, 92, 91, 78, 67, 62, 60, 51, 50, 47, 42, 38], [101, 99, 94, 92, 90, 88, 87, 86, 84, 81, 78, 77, 76, 74, 65, 61, 60, 59, 58, 56, 53, 47, 43], [99, 98, 97, 96, 95, 94, 93, 92, 90, 89, 87, 86, 84, 82, 76, 66, 63, 55, 53, 37], [99, 98, 95, 93, 92, 85, 80, 75, 64, 63, 56, 55, 36, 34], [96, 93, 92, 90, 87, 86, 77, 68, 65, 60, 59, 58, 55, 43, 41], [101, 97, 95, 90, 88, 86, 85, 81, 77, 66, 58, 50, 47, 29], [98, 96, 90, 89, 86, 85, 84, 82, 81, 79, 77, 75, 68, 63, 61, 59, 55, 54], [99, 97, 92, 89, 87, 86, 85, 76, 75, 72, 68, 67, 64, 63, 59, 50, 45], [95, 92, 90, 88, 86, 83, 82, 78, 74, 73, 67, 66, 65, 48, 43], [98, 95, 94, 92, 88, 87, 86, 82, 81, 80, 79, 78, 77, 76, 75, 72, 69, 65, 58, 50], [101, 100, 95, 94, 90, 88, 87, 84, 83, 81, 80, 78, 76, 74, 73, 71, 67, 47], [97, 93, 90, 86, 85, 82, 81, 80, 79, 78, 76, 75, 72, 69, 67, 63, 50], [100, 98, 88, 86, 83, 80, 77, 76, 74, 73, 66, 63, 60, 54, 47], [95, 94, 90, 88, 84, 81, 78, 77, 76, 74, 73, 65, 63, 61, 43], [99, 95, 94, 91, 88, 87, 85, 84, 83, 82, 81, 79, 76, 72, 71, 67, 54], [99, 93, 91, 84, 83, 82, 76, 75, 74, 72, 65, 59, 54], [99, 89, 87, 83, 81, 78, 77, 76, 74, 71, 66, 47], [101, 86, 80, 79, 78, 77, 76, 75, 71, 69, 61, 50], [93, 85, 84, 78, 77, 74, 73, 66, 63, 47], [99, 96, 95, 89, 86, 85, 79, 78, 77, 76, 75, 72, 69, 63], [94, 90, 88, 82, 81, 79, 78, 74, 71, 69, 66, 65], [91, 90, 79, 76, 75, 73, 71, 69, 68, 64, 61], [97, 88, 87, 82, 79, 77, 76, 74, 73, 72, 69, 65], [88, 81, 79, 78, 77, 75, 74, 73, 72, 69, 64], [86, 82, 81, 80, 77, 76, 74, 72, 71, 69, 64], [100, 94, 93, 89, 87, 85, 76, 75, 69, 59], [97, 93, 86, 84, 82, 81, 76, 75, 73, 72, 71], [91, 88, 85, 84, 81, 78, 76, 70, 69], [98, 90, 89, 87, 82, 80, 70, 69], [80, 79, 75, 72, 71, 69, 64], [94, 91, 83, 75, 74, 69, 64], [81, 78, 77, 73, 71, 70, 69], [94, 85, 81, 79, 71, 70, 69], [82, 79, 75, 72, 70, 69], [87, 85, 84, 76, 71, 69], [92, 82, 81, 77, 73, 70], [84, 83, 74, 73, 70], [81, 80, 73, 70, 69], [89, 83, 74, 70, 69], [80, 73, 71, 69], [78, 70, 69], [91, 83, 69], [96, 70, 69], [80, 73, 70], [70, 63], [80, 73], [89, 69], [72, 70], [85, 69], [71], [70], [70], [72], [77], [74], [102], [102], [102], [102], [102], [102], [102], [102], [102], [102], [102], [102], [102], [102], [102], [102], [102], [102], [102], [102], [102], [102], [102], [102], [102], [102], [102], [102], [102], [102], [102], [102], [102], []]
letting durations = [[0], [1, 7, 10], [9, 10, 10], [6, 7, 9], [3, 6, 10], [1, 4, 5], [7, 8, 9], [1, 2, 8], [3, 5, 9], [1, 2, 7], [1, 2, 4], [1, 5, 7], [2, 3, 4], [4, 5, 9], [2, 3, 4], [3, 7, 7], [1, 3, 4], [2, 3, 5], [5, 6, 8], [4, 8, 9], [2, 3, 4], [3, 4, 10], [1, 2, 3], [1, 2, 8], [1, 3, 4], [2, 4, 4], [2, 5, 5], [1, 6, 10], [1, 2, 7], [2, 5, 8], [7, 9, 9], [7, 8, 8], [6, 8, 9], [3, 6, 8], [6, 7, 9], [7, 8, 9], [2, 3, 8], [3, 7, 9], [1, 4, 5], [1, 8, 9], [1, 5, 9], [3, 5, 10], [3, 3, 9], [4, 8, 9], [2, 3, 10], [7, 8, 9], [1, 4, 6], [4, 9, 9], [2, 5, 5], [1, 9, 10], [4, 6, 10], [6, 8, 9], [5, 8, 10], [5, 5, 9], [4, 5, 6], [4, 6, 8], [1, 3, 6], [5, 6, 10], [7, 9, 10], [2, 9, 10], [3, 5, 5], [2, 6, 7], [5, 6, 7], [2, 3, 6], [4, 4, 8], [3, 7, 10], [1, 7, 9], [5, 8, 9], [4, 7, 7], [1, 7, 8], [1, 2, 5], [3, 4, 5], [6, 9, 10], [3, 4, 4], [2, 4, 6], [1, 4, 9], [4, 5, 9], [2, 3, 5], [5, 8, 9], [6, 9, 9], [1, 3, 9], [5, 7, 8], [1, 6, 8], [4, 9, 10], [2, 6, 9], [6, 8, 10], [4, 7, 7], [2, 3, 5], [3, 4, 7], [5, 9, 10], [1, 5, 10], [1, 1, 4], [6, 6, 9], [1, 1, 3], [2, 3, 8], [4, 8, 9], [3, 4, 8], [1, 4, 5], [2, 6, 9], [6, 7, 9], [1, 8, 9], [0]]
letting resourceUsage = [[[0, 0, 0, 0]], [[0, 3, 6, 6], [0, 3, 5, 6], [0, 3, 4, 4]], [[3, 0, 7, 4], [0, 3, 3, 3], [1, 0, 2, 2]], [[0, 5, 6, 9], [4, 0, 6, 9], [0, 2, 6, 9]], [[4, 0, 7, 7], [0, 3, 6, 4], [4, 0, 5, 1]], [[0, 3, 9, 10], [4, 0, 8, 10], [4, 0, 7, 10]], [[0, 4, 6, 5], [2, 0, 6, 4], [1, 0, 6, 4]], [[0, 2, 10, 8], [2, 0, 7, 6], [2, 0, 4, 3]], [[4, 0, 6, 8], [2, 0, 5, 8], [2, 0, 5, 7]], [[0, 5, 1, 9], [0, 4, 1, 5], [2, 0, 1, 4]], [[2, 0, 4, 7], [0, 3, 3, 6], [1, 0, 3, 5]], [[0, 4, 7, 3], [2, 0, 5, 2], [2, 0, 3, 2]], [[5, 0, 7, 7], [4, 0, 6, 5], [4, 0, 6, 4]], [[0, 1, 5, 8], [3, 0, 5, 3], [0, 1, 3, 3]], [[0, 2, 10, 7], [3, 0, 6, 4], [3, 0, 4, 3]], [[3, 0, 6, 7], [0, 4, 5, 7], [3, 0, 2, 7]], [[2, 0, 9, 9], [0, 5, 5, 8], [0, 5, 3, 8]], [[2, 0, 8, 5], [2, 0, 7, 4], [0, 4, 6, 2]], [[0, 4, 9, 6], [3, 0, 7, 5], [0, 2, 7, 2]], [[0, 4, 6, 10], [1, 0, 6, 6], [1, 0, 2, 5]], [[5, 0, 6, 8], [0, 2, 3, 7], [0, 2, 2, 5]], [[3, 0, 7, 6], [3, 0, 7, 5], [0, 1, 7, 6]], [[3, 0, 3, 3], [0, 1, 2, 3], [0, 1, 2, 2]], [[0, 4, 6, 10], [2, 0, 4, 6], [2, 0, 3, 5]], [[4, 0, 8, 7], [3, 0, 5, 3], [2, 0, 5, 1]], [[3, 0, 6, 8], [0, 3, 4, 6], [2, 0, 4, 4]], [[3, 0, 7, 5], [2, 0, 5, 4], [0, 1, 4, 4]], [[0, 4, 9, 3], [0, 3, 7, 3], [0, 2, 6, 3]], [[3, 0, 6, 8], [1, 0, 5, 5], [0, 4, 3, 3]], [[3, 0, 3, 5], [2, 0, 3, 4], [0, 2, 3, 4]], [[5, 0, 9, 7], [4, 0, 8, 6], [0, 4, 6, 3]], [[0, 2, 10, 7], [1, 0, 6, 3], [0, 1, 3, 2]], [[3, 0, 6, 4], [1, 0, 5, 4], [0, 1, 5, 3]], [[0, 4, 4, 7], [4, 0, 3, 6], [0, 3, 3, 5]], [[0, 5, 7, 6], [0, 4, 7, 6], [1, 0, 6, 4]], [[0, 3, 7, 4], [2, 0, 5, 2], [1, 0, 5, 1]], [[0, 4, 5, 10], [0, 2, 4, 10], [0, 2, 3, 10]], [[0, 5, 6, 10], [2, 0, 5, 9], [2, 0, 5, 8]], [[0, 4, 10, 10], [2, 0, 7, 10], [1, 0, 1, 10]], [[0, 1, 7, 9], [0, 1, 7, 8], [3, 0, 7, 8]], [[1, 0, 2, 5], [1, 0, 1, 3], [1, 0, 1, 2]], [[0, 3, 4, 6], [3, 0, 3, 6], [0, 2, 2, 6]], [[3, 0, 8, 5], [0, 2, 8, 4], [3, 0, 7, 4]], [[3, 0, 9, 8], [0, 3, 9, 8], [0, 2, 9, 6]], [[0, 4, 2, 2], [0, 3, 2, 2], [4, 0, 2, 1]], [[0, 4, 7, 10], [0, 4, 5, 9], [2, 0, 3, 8]], [[4, 0, 5, 3], [0, 2, 5, 2], [3, 0, 4, 2]], [[2, 0, 4, 9], [0, 4, 4, 8], [1, 0, 4, 8]], [[3, 0, 3, 2], [2, 0, 3, 1], [0, 2, 2, 1]], [[0, 3, 5, 2], [2, 0, 4, 2], [2, 0, 3, 2]], [[0, 4, 8, 4], [0, 3, 3, 4], [0, 3, 2, 4]], [[0, 2, 3, 1], [2, 0, 2, 1], [0, 2, 2, 1]], [[5, 0, 9, 9], [0, 1, 7, 7], [5, 0, 6, 6]], [[4, 0, 7, 7], [0, 3, 6, 7], [0, 3, 5, 7]], [[0, 1, 3, 9], [3, 0, 3, 7], [0, 1, 3, 7]], [[0, 5, 5, 9], [0, 4, 5, 9], [0, 4, 4, 8]], [[0, 4, 4, 8], [3, 0, 4, 6], [2, 0, 3, 1]], [[3, 0, 5, 8], [1, 0, 4, 7], [0, 4, 4, 7]], [[0, 4, 7, 7], [2, 0, 6, 6], [0, 1, 1, 5]], [[0, 3, 7, 6], [0, 2, 7, 6], [0, 2, 5, 6]], [[0, 5, 10, 10], [5, 0, 7, 6], [0, 2, 5, 6]], [[0, 5, 6, 5], [0, 3, 6, 3], [0, 2, 6, 3]], [[4, 0, 8, 6], [0, 2, 6, 4], [0, 2, 3, 4]], [[5, 0, 10, 8], [3, 0, 9, 4], [0, 2, 7, 1]], [[0, 2, 8, 7], [2, 0, 7, 5], [2, 0, 4, 4]], [[0, 4, 6, 10], [2, 0, 5, 9], [1, 0, 2, 8]], [[1, 0, 1, 7], [0, 2, 1, 4], [1, 0, 1, 4]], [[0, 5, 6, 4], [3, 0, 6, 2], [0, 5, 6, 2]], [[2, 0, 5, 5], [0, 4, 5, 5], [1, 0, 5, 3]], [[0, 2, 7, 6], [0, 1, 5, 5], [0, 1, 3, 1]], [[0, 3, 9, 4], [0, 3, 8, 4], [2, 0, 8, 4]], [[3, 0, 6, 7], [3, 0, 4, 7], [0, 5, 3, 3]], [[5, 0, 8, 2], [5, 0, 8, 1], [0, 4, 6, 2]], [[2, 0, 7, 4], [0, 3, 5, 3], [2, 0, 4, 2]], [[0, 3, 7, 4], [4, 0, 5, 4], [3, 0, 3, 4]], [[0, 3, 10, 8], [1, 0, 5, 8], [0, 2, 3, 8]], [[3, 0, 4, 7], [2, 0, 4, 5], [2, 0, 3, 2]], [[0, 3, 10, 7], [0, 2, 8, 6], [0, 1, 8, 5]], [[4, 0, 8, 4], [0, 3, 8, 2], [0, 3, 8, 1]], [[0, 3, 3, 8], [2, 0, 3, 4], [0, 2, 3, 3]], [[2, 0, 3, 8], [0, 2, 3, 7], [0, 2, 3, 6]], [[4, 0, 8, 9], [4, 0, 8, 8], [4, 0, 8, 7]], [[0, 4, 10, 4], [2, 0, 8, 4], [0, 3, 6, 4]], [[5, 0, 7, 6], [3, 0, 7, 5], [0, 1, 7, 4]], [[0, 2, 10, 7], [0, 2, 7, 5], [0, 2, 5, 3]], [[0, 5, 9, 7], [0, 4, 7, 5], [0, 3, 6, 4]], [[3, 0, 8, 9], [0, 4, 7, 4], [3, 0, 7, 2]], [[0, 4, 8, 9], [2, 0, 6, 7], [2, 0, 2, 5]], [[4, 0, 6, 9], [4, 0, 4, 9], [4, 0, 3, 8]], [[3, 0, 3, 5], [0, 3, 2, 4], [0, 2, 2, 4]], [[0, 5, 9, 8], [0, 4, 5, 4], [2, 0, 4, 2]], [[0, 2, 3, 10], [2, 0, 3, 7], [1, 0, 2, 7]], [[0, 4, 7, 1], [4, 0, 3, 1], [4, 0, 2, 1]], [[3, 0, 5, 6], [0, 4, 4, 5], [0, 3, 4, 5]], [[1, 0, 10, 5], [0, 2, 9, 5], [0, 2, 9, 3]], [[0, 3, 9, 4], [0, 3, 9, 2], [0, 1, 9, 2]], [[4, 0, 8, 3], [3, 0, 3, 1], [2, 0, 1, 1]], [[0, 4, 5, 8], [0, 3, 5, 7], [0, 3, 5, 6]], [[0, 3, 2, 9], [2, 0, 2, 8], [2, 0, 2, 7]], [[5, 0, 8, 10], [4, 0, 7, 5], [3, 0, 7, 5]], [[5, 0, 7, 7], [0, 3, 7, 4], [0, 2, 4, 3]], [[0, 0, 0, 0]]]
